Traveling Salesman Problem/TSP_generados/Aleatorio1620390983_11.tsp
NAME: Aleatorio1620390983_11.tsp
COMMENT: Randomly generated scenario
TYPE: TSP
DIMENSION: 11
EDGE_WEIGHT_TYPE: ATT
NODE_COORD_SECTION
1 0.74 28.79
2 4.36 42.7
3 27.41 21.49
4 45.47 35.71
5 1.24 7.82
6 10.51 44.39
7 38.16 17.99
8 42.21 27.32
9 1.96 35.17
10 1.79 20.95
11 42.64 12.12
