Traveling Salesman Problem/TSP_generados/Aleatorio1620390983_11.opt.tour
NAME: Aleatorio1620390983_11.opt.tour
COMMENT: Optimal solution for Aleatorio1620390983_11 (150.27181046309613)
TYPE: TOUR
DIMENSION: 11
TOUR_SECTION
1 9 2 6 4 8 11 7 3 5 10
-1
EOF
